(set-option :produce-models true)
(set-logic QF_LRA)
(set-info :notes | Strip-packing problem.|)
(declare-fun x0 () Real)
(declare-fun y0 () Real)
(declare-fun x1 () Real)
(declare-fun y1 () Real)
(declare-fun x2 () Real)
(declare-fun y2 () Real)
(declare-fun x3 () Real)
(declare-fun y3 () Real)
(declare-fun x4 () Real)
(declare-fun y4 () Real)
(declare-fun x5 () Real)
(declare-fun y5 () Real)
(declare-fun x6 () Real)
(declare-fun y6 () Real)
(declare-fun x7 () Real)
(declare-fun y7 () Real)
(declare-fun x8 () Real)
(declare-fun y8 () Real)
(declare-fun z () Real)
(declare-fun c () Real)
(assert (and (= c z) (and (>= x0 0) 
(and (>= y0 0) 
(and (>= x1 0) 
(and (>= y1 0) 
(and (>= x2 0) 
(and (>= y2 0) 
(and (>= x3 0) 
(and (>= y3 0) 
(and (>= x4 0) 
(and (>= y4 0) 
(and (>= x5 0) 
(and (>= y5 0) 
(and (>= x6 0) 
(and (>= y6 0) 
(and (>= x7 0) 
(and (>= y7 0) 
(and (>= x8 0) 
(and (>= y8 0) 
(and (>= z 0) 
(and (>= c 0) 
(and (<= (+ x0 0.8816004301) z) 
(and (<= 0.7767338837 y0) 
(and (<= y0 1.5) 
(and (<= x0 (- 2.5036566658 0.8816004301)) 
(and (>= x0 0) 
(and (<= (+ x1 0.7288847734) z) 
(and (<= 0.7442244866 y1) 
(and (<= y1 1.5) 
(and (<= x1 (- 2.5036566658 0.7288847734)) 
(and (>= x1 0) 
(and (<= (+ x2 0.0985369137) z) 
(and (<= 0.6419673204 y2) 
(and (<= y2 1.5) 
(and (<= x2 (- 2.5036566658 0.0985369137)) 
(and (>= x2 0) 
(and (<= (+ x3 0.2659406359) z) 
(and (<= 0.3415499818 y3) 
(and (<= y3 1.5) 
(and (<= x3 (- 2.5036566658 0.2659406359)) 
(and (>= x3 0) 
(and (<= (+ x4 0.6970120261) z) 
(and (<= 0.3157668719 y4) 
(and (<= y4 1.5) 
(and (<= x4 (- 2.5036566658 0.6970120261)) 
(and (>= x4 0) 
(and (<= (+ x5 0.8931714623) z) 
(and (<= 0.297414476 y5) 
(and (<= y5 1.5) 
(and (<= x5 (- 2.5036566658 0.8931714623)) 
(and (>= x5 0) 
(and (<= (+ x6 0.603326355) z) 
(and (<= 0.2224834121 y6) 
(and (<= y6 1.5) 
(and (<= x6 (- 2.5036566658 0.603326355)) 
(and (>= x6 0) 
(and (<= (+ x7 0.739597668) z) 
(and (<= 0.1957187158 y7) 
(and (<= y7 1.5) 
(and (<= x7 (- 2.5036566658 0.739597668)) 
(and (>= x7 0) 
(and (<= (+ x8 0.3479579797) z) 
(and (<= 0.0596476104 y8) 
(and (<= y8 1.5) 
(and (<= x8 (- 2.5036566658 0.3479579797)) 
(and (>= x8 0) 
(and (<= c 2.5036566658) 
(and (or (<= (+ x0 0.8816004301) x1) (or (<= (+ x1 0.7288847734) x0) (or (>= (- y0 0.7767338837) y1) (or (>= (- y1 0.7442244866) y0))))) 
(and (or (<= (+ x0 0.8816004301) x2) (or (<= (+ x2 0.0985369137) x0) (or (>= (- y0 0.7767338837) y2) (or (>= (- y2 0.6419673204) y0))))) 
(and (or (<= (+ x0 0.8816004301) x3) (or (<= (+ x3 0.2659406359) x0) (or (>= (- y0 0.7767338837) y3) (or (>= (- y3 0.3415499818) y0))))) 
(and (or (<= (+ x0 0.8816004301) x4) (or (<= (+ x4 0.6970120261) x0) (or (>= (- y0 0.7767338837) y4) (or (>= (- y4 0.3157668719) y0))))) 
(and (or (<= (+ x0 0.8816004301) x5) (or (<= (+ x5 0.8931714623) x0) (or (>= (- y0 0.7767338837) y5) (or (>= (- y5 0.297414476) y0))))) 
(and (or (<= (+ x0 0.8816004301) x6) (or (<= (+ x6 0.603326355) x0) (or (>= (- y0 0.7767338837) y6) (or (>= (- y6 0.2224834121) y0))))) 
(and (or (<= (+ x0 0.8816004301) x7) (or (<= (+ x7 0.739597668) x0) (or (>= (- y0 0.7767338837) y7) (or (>= (- y7 0.1957187158) y0))))) 
(and (or (<= (+ x0 0.8816004301) x8) (or (<= (+ x8 0.3479579797) x0) (or (>= (- y0 0.7767338837) y8) (or (>= (- y8 0.0596476104) y0))))) 
(and (or (<= (+ x1 0.7288847734) x2) (or (<= (+ x2 0.0985369137) x1) (or (>= (- y1 0.7442244866) y2) (or (>= (- y2 0.6419673204) y1))))) 
(and (or (<= (+ x1 0.7288847734) x3) (or (<= (+ x3 0.2659406359) x1) (or (>= (- y1 0.7442244866) y3) (or (>= (- y3 0.3415499818) y1))))) 
(and (or (<= (+ x1 0.7288847734) x4) (or (<= (+ x4 0.6970120261) x1) (or (>= (- y1 0.7442244866) y4) (or (>= (- y4 0.3157668719) y1))))) 
(and (or (<= (+ x1 0.7288847734) x5) (or (<= (+ x5 0.8931714623) x1) (or (>= (- y1 0.7442244866) y5) (or (>= (- y5 0.297414476) y1))))) 
(and (or (<= (+ x1 0.7288847734) x6) (or (<= (+ x6 0.603326355) x1) (or (>= (- y1 0.7442244866) y6) (or (>= (- y6 0.2224834121) y1))))) 
(and (or (<= (+ x1 0.7288847734) x7) (or (<= (+ x7 0.739597668) x1) (or (>= (- y1 0.7442244866) y7) (or (>= (- y7 0.1957187158) y1))))) 
(and (or (<= (+ x1 0.7288847734) x8) (or (<= (+ x8 0.3479579797) x1) (or (>= (- y1 0.7442244866) y8) (or (>= (- y8 0.0596476104) y1))))) 
(and (or (<= (+ x2 0.0985369137) x3) (or (<= (+ x3 0.2659406359) x2) (or (>= (- y2 0.6419673204) y3) (or (>= (- y3 0.3415499818) y2))))) 
(and (or (<= (+ x2 0.0985369137) x4) (or (<= (+ x4 0.6970120261) x2) (or (>= (- y2 0.6419673204) y4) (or (>= (- y4 0.3157668719) y2))))) 
(and (or (<= (+ x2 0.0985369137) x5) (or (<= (+ x5 0.8931714623) x2) (or (>= (- y2 0.6419673204) y5) (or (>= (- y5 0.297414476) y2))))) 
(and (or (<= (+ x2 0.0985369137) x6) (or (<= (+ x6 0.603326355) x2) (or (>= (- y2 0.6419673204) y6) (or (>= (- y6 0.2224834121) y2))))) 
(and (or (<= (+ x2 0.0985369137) x7) (or (<= (+ x7 0.739597668) x2) (or (>= (- y2 0.6419673204) y7) (or (>= (- y7 0.1957187158) y2))))) 
(and (or (<= (+ x2 0.0985369137) x8) (or (<= (+ x8 0.3479579797) x2) (or (>= (- y2 0.6419673204) y8) (or (>= (- y8 0.0596476104) y2))))) 
(and (or (<= (+ x3 0.2659406359) x4) (or (<= (+ x4 0.6970120261) x3) (or (>= (- y3 0.3415499818) y4) (or (>= (- y4 0.3157668719) y3))))) 
(and (or (<= (+ x3 0.2659406359) x5) (or (<= (+ x5 0.8931714623) x3) (or (>= (- y3 0.3415499818) y5) (or (>= (- y5 0.297414476) y3))))) 
(and (or (<= (+ x3 0.2659406359) x6) (or (<= (+ x6 0.603326355) x3) (or (>= (- y3 0.3415499818) y6) (or (>= (- y6 0.2224834121) y3))))) 
(and (or (<= (+ x3 0.2659406359) x7) (or (<= (+ x7 0.739597668) x3) (or (>= (- y3 0.3415499818) y7) (or (>= (- y7 0.1957187158) y3))))) 
(and (or (<= (+ x3 0.2659406359) x8) (or (<= (+ x8 0.3479579797) x3) (or (>= (- y3 0.3415499818) y8) (or (>= (- y8 0.0596476104) y3))))) 
(and (or (<= (+ x4 0.6970120261) x5) (or (<= (+ x5 0.8931714623) x4) (or (>= (- y4 0.3157668719) y5) (or (>= (- y5 0.297414476) y4))))) 
(and (or (<= (+ x4 0.6970120261) x6) (or (<= (+ x6 0.603326355) x4) (or (>= (- y4 0.3157668719) y6) (or (>= (- y6 0.2224834121) y4))))) 
(and (or (<= (+ x4 0.6970120261) x7) (or (<= (+ x7 0.739597668) x4) (or (>= (- y4 0.3157668719) y7) (or (>= (- y7 0.1957187158) y4))))) 
(and (or (<= (+ x4 0.6970120261) x8) (or (<= (+ x8 0.3479579797) x4) (or (>= (- y4 0.3157668719) y8) (or (>= (- y8 0.0596476104) y4))))) 
(and (or (<= (+ x5 0.8931714623) x6) (or (<= (+ x6 0.603326355) x5) (or (>= (- y5 0.297414476) y6) (or (>= (- y6 0.2224834121) y5))))) 
(and (or (<= (+ x5 0.8931714623) x7) (or (<= (+ x7 0.739597668) x5) (or (>= (- y5 0.297414476) y7) (or (>= (- y7 0.1957187158) y5))))) 
(and (or (<= (+ x5 0.8931714623) x8) (or (<= (+ x8 0.3479579797) x5) (or (>= (- y5 0.297414476) y8) (or (>= (- y8 0.0596476104) y5))))) 
(and (or (<= (+ x6 0.603326355) x7) (or (<= (+ x7 0.739597668) x6) (or (>= (- y6 0.2224834121) y7) (or (>= (- y7 0.1957187158) y6))))) 
(and (or (<= (+ x6 0.603326355) x8) (or (<= (+ x8 0.3479579797) x6) (or (>= (- y6 0.2224834121) y8) (or (>= (- y8 0.0596476104) y6))))) 
(and (or (<= (+ x7 0.739597668) x8) (or (<= (+ x8 0.3479579797) x7) (or (>= (- y7 0.1957187158) y8) (or (>= (- y8 0.0596476104) y7))))) ))))))))))))))))))))))))))))))))))))))))))))))))))))))))))))))))))))))))))))))))))))))))))))))))))))))))
(minimize c)
(check-sat)
(get-objectives)
(exit)
